  6	43
 16
  0	 14	  9	 30	 57	 12	 73	 52	 36	 43	 86	 55	 22	 79	 65	 87	
 16
  0	 20	  1	 40	 63	 44	 83	 42	 17	  4	  3	 47	 60	 85	 46	 87	
 12
  0	 16	 23	 59	 35	 13	 28	 78	 66	 56	 71	 87	
 22
  0	 10	 31	 27	 53	 26	 11	 54	 74	 34	 70	 69	 77	 15	 39	 33	 24	 76	 82	 58	 67	 87	
 14
  0	  8	 51	 18	  5	 25	 48	 61	  2	 68	  7	 50	 45	 87	
 18
  0	  6	 21	 32	 64	 41	 49	 84	 75	 19	 29	 38	 72	 37	 81	 62	 80	 87	
